(set-logic QF_SLIA)
(declare-const result String)
(declare-const attack String)
(declare-const prefix RegLan)
(declare-const infix RegLan)
(declare-const postfix RegLan)
(declare-const postfixs String)

(assert (str.in_re attack (re.++ prefix ((_ re.loop 10000 10000) infix) postfix)))
(assert (= prefix 
     (re.++  (re.++  (str.to_re "\x3b") (re.++ (re.*  (str.to_re "\x20") ) (re.++ (re.opt  (re.++  (str.to_re "\x53") (re.++  (str.to_re "\x4b") (re.++  (str.to_re "\x59")  (re.union  (str.to_re "\x20")  (str.to_re "\x5f"))))) ) (re.++  (str.to_re "\x49") (re.++  (str.to_re "\x4d") (re.++  (str.to_re "\x5c\x2d") (re.++  (re.union  (str.to_re "\x41")  (str.to_re "\x54"))  (re.++  (re.++ (re.range "0" "9") (re.++ (re.range "0" "9") (re.range "0" "9"))) (re.*  (re.++ (re.range "0" "9") (re.++ (re.range "0" "9") (re.range "0" "9"))) ))))))))) (re.+  (re.union  (str.to_re "\x5c\x2f")  (str.to_re "\x3b")) ))
))
(assert (= infix 
        (re.inter  (re.++ (re.+  (re.union  (str.to_re "\x5c\x2f")  (str.to_re "\x3b")) ) (re.* re.allchar ))  (re.++ (re.+  (re.union  (str.to_re "\x5c\x2f")  (str.to_re "\x3b")) ) (re.* re.allchar )) )
))
(assert (= postfix 
        (re.inter  (re.inter  (re.++  (str.to_re "\x00") (re.*  (re.union (re.union (str.to_re "\t") (str.to_re "\n") (str.to_re "\r") (str.to_re " ")) (re.inter re.allchar (re.comp (re.union (str.to_re "\t") (str.to_re "\n") (str.to_re "\r") (str.to_re " "))))) )) (re.comp  (re.inter (re.* re.allchar )  (re.++   (re.union (re.union (str.to_re "\t") (str.to_re "\n") (str.to_re "\r") (str.to_re " ")) (re.inter re.allchar (re.comp (re.union (str.to_re "\t") (str.to_re "\n") (str.to_re "\r") (str.to_re " "))))) (re.*   (re.union (re.union (str.to_re "\t") (str.to_re "\n") (str.to_re "\r") (str.to_re " ")) (re.inter re.allchar (re.comp (re.union (str.to_re "\t") (str.to_re "\n") (str.to_re "\r") (str.to_re " "))))) )))))  (re.inter  (re.++  (str.to_re "\x00") (re.*  (re.union (re.union (str.to_re "\t") (str.to_re "\n") (str.to_re "\r") (str.to_re " ")) (re.inter re.allchar (re.comp (re.union (str.to_re "\t") (str.to_re "\n") (str.to_re "\r") (str.to_re " "))))) )) (re.comp  (re.++  (re.inter (re.* re.allchar )  (re.++   (re.union (re.union (str.to_re "\t") (str.to_re "\n") (str.to_re "\r") (str.to_re " ")) (re.inter re.allchar (re.comp (re.union (str.to_re "\t") (str.to_re "\n") (str.to_re "\r") (str.to_re " "))))) (re.*   (re.union (re.union (str.to_re "\t") (str.to_re "\n") (str.to_re "\r") (str.to_re " ")) (re.inter re.allchar (re.comp (re.union (str.to_re "\t") (str.to_re "\n") (str.to_re "\r") (str.to_re " "))))) )))  (re.++  (str.to_re "\x20") (re.++  (str.to_re "\x42") (re.++  (str.to_re "\x75") (re.++  (str.to_re "\x69") (re.++  (str.to_re "\x6c") (re.++  (str.to_re "\x64")  (str.to_re "\x5c\x2f")))))))))) )
))
(assert (str.in_re postfixs postfix))
(assert (>= (str.len postfixs) 1))
(assert (= result (str.++ attack postfixs)))
(check-sat)
(get-model)